data/instances/vrp_files/train_6.vrp
NAME : 6
COMMENT : Generated instance No. 6
TYPE : CVRP
DIMENSION : 21
EDGE_WEIGHT_TYPE : EUC_2D
CAPACITY : 30
NODE_COORD_SECTION
 1 867 561
 2 943 944
 3 867 636
 4 800 677
 5 573 128
 6 811 820
 7 625 820
 8 651 206
 9 273 214
 10 377 38
 11 618 336
 12 655 385
 13 681 340
 14 260 496
 15 692 348
 16 936 39
 17 417 967
 18 547 423
 19 568 575
 20 731 127
 21 250 580
DEMAND_SECTION
1 0
2 1
3 7
4 7
5 9
6 3
7 9
8 1
9 1
10 4
11 9
12 6
13 3
14 1
15 4
16 9
17 3
18 9
19 7
20 4
21 3
DEPOT_SECTION
 1
 -1
EOF